NAME 
ROWS
 N  OBJ
 L  R0      
 E  R1      
 E  R2      
 E  R3      
 E  R4      
 E  R5      
 E  R6      
 E  R7      
 E  R8      
 E  R9      
 E  R10     
 E  R11     
 E  R12     
 E  R13     
 E  R14     
 E  R15     
 E  R16     
 E  R17     
 E  R18     
 E  R19     
 E  R20     
COLUMNS
    MARKER    'MARKER'                 'INTORG'
    I0(10)    OBJ       -121
    I0(10)    R0        18
    I0(10)    R1        11
    I0(10)    R4        1
    I0(10)    R5        19
    I0(10)    R8        16
    I0(10)    R9        18
    I0(10)    R10       9
    I0(10)    R11       14
    I0(10)    R12       8
    I0(10)    R20       1
    I1(12)    OBJ       68
    I1(12)    R0        1
    I1(12)    R1        6
    I1(12)    R3        4
    I1(12)    R4        13
    I1(12)    R5        14
    I1(12)    R6        19
    I1(12)    R7        11
    I1(12)    R8        11
    I1(12)    R10       11
    I1(12)    R11       10
    I1(12)    R12       6
    I1(12)    R20       1
    I2(10)    OBJ       -191
    I2(10)    R0        1
    I2(10)    R1        8
    I2(10)    R2        14
    I2(10)    R5        4
    I2(10)    R6        16
    I2(10)    R7        10
    I2(10)    R8        18
    I2(10)    R9        15
    I2(10)    R11       12
    I2(10)    R20       1
    I3(7)     OBJ       -122
    I3(7)     R0        38
    I3(7)     R3        1
    I3(7)     R6        1
    I3(7)     R7        12
    I3(7)     R8        2
    I3(7)     R11       10
    I3(7)     R20       1
    I4(9)     OBJ       57
    I4(9)     R0        21
    I4(9)     R2        9
    I4(9)     R3        13
    I4(9)     R4        10
    I4(9)     R6        6
    I4(9)     R8        6
    I4(9)     R9        11
    I4(9)     R12       8
    I4(9)     R20       1
    I5(12)    OBJ       -104
    I5(12)    R0        88
    I5(12)    R1        10
    I5(12)    R2        7
    I5(12)    R4        4
    I5(12)    R5        13
    I5(12)    R6        13
    I5(12)    R7        9
    I5(12)    R8        13
    I5(12)    R10       19
    I5(12)    R11       7
    I5(12)    R12       12
    I5(12)    R20       1
    I6(11)    OBJ       113
    I6(11)    R0        -170
    I6(11)    R1        3
    I6(11)    R2        17
    I6(11)    R3        3
    I6(11)    R4        18
    I6(11)    R5        15
    I6(11)    R6        -1
    I6(11)    R8        3
    I6(11)    R10       -1
    I6(11)    R11       14
    I6(11)    R20       1
    I7(12)    OBJ       -105
    I7(12)    R0        -182
    I7(12)    R2        1
    I7(12)    R3        17
    I7(12)    R4        19
    I7(12)    R5        1
    I7(12)    R6        19
    I7(12)    R7        8
    I7(12)    R9        14
    I7(12)    R10       19
    I7(12)    R11       19
    I7(12)    R12       6
    I7(12)    R20       1
    I8(9)     OBJ       112
    I8(9)     R0        -28
    I8(9)     R2        7
    I8(9)     R4        3
    I8(9)     R5        1
    I8(9)     R8        18
    I8(9)     R9        17
    I8(9)     R11       8
    I8(9)     R12       18
    I8(9)     R20       1
    I9(10)    OBJ       124
    I9(10)    R0        -45
    I9(10)    R1        14
    I9(10)    R3        18
    I9(10)    R4        9
    I9(10)    R6        9
    I9(10)    R7        1
    I9(10)    R8        7
    I9(10)    R10       7
    I9(10)    R12       19
    I9(10)    R20       1
    I10(9)    OBJ       147
    I10(9)    R0        153
    I10(9)    R1        -1
    I10(9)    R2        4
    I10(9)    R4        17
    I10(9)    R5        17
    I10(9)    R8        3
    I10(9)    R11       16
    I10(9)    R12       3
    I10(9)    R20       1
    I11(10)   OBJ       10
    I11(10)   R0        198
    I11(10)   R2        17
    I11(10)   R3        5
    I11(10)   R4        13
    I11(10)   R7        3
    I11(10)   R8        7
    I11(10)   R9        6
    I11(10)   R11       18
    I11(10)   R12       19
    I11(10)   R20       1
    MARKER    'MARKER'                 'INTEND'
    C12(15)   OBJ       -10
    C12(15)   R0        -8
    C12(15)   R1        16
    C12(15)   R2        12
    C12(15)   R3        9
    C12(15)   R4        5
    C12(15)   R5        17
    C12(15)   R6        5
    C12(15)   R7        16
    C12(15)   R8        4
    C12(15)   R11       7
    C12(15)   R12       1
    C12(15)   R13       8
    C12(15)   R14       1
    C12(15)   R18       9
    C12(15)   R19       6
    C13(15)   R0        -6
    C13(15)   R2        15
    C13(15)   R3        15
    C13(15)   R4        10
    C13(15)   R6        7
    C13(15)   R7        -1
    C13(15)   R8        17
    C13(15)   R9        17
    C13(15)   R11       -1
    C13(15)   R12       5
    C13(15)   R15       9
    C13(15)   R16       3
    C13(15)   R17       7
    C13(15)   R18       19
    C13(15)   R19       16
    C14(10)   OBJ       -5
    C14(10)   R0        -5
    C14(10)   R1        5
    C14(10)   R4        3
    C14(10)   R5        1
    C14(10)   R6        -1
    C14(10)   R7        12
    C14(10)   R10       1
    C14(10)   R12       19
    C14(10)   R16       19
    C14(10)   R17       8
    C15(14)   OBJ       -7
    C15(14)   R0        5
    C15(14)   R1        5
    C15(14)   R2        11
    C15(14)   R4        6
    C15(14)   R6        19
    C15(14)   R7        10
    C15(14)   R8        3
    C15(14)   R10       12
    C15(14)   R11       3
    C15(14)   R12       4
    C15(14)   R13       2
    C15(14)   R14       -1
    C15(14)   R18       1
    C15(14)   R19       8
    C16(10)   OBJ       -7
    C16(10)   R0        -5
    C16(10)   R1        13
    C16(10)   R3        11
    C16(10)   R7        14
    C16(10)   R8        6
    C16(10)   R9        18
    C16(10)   R15       2
    C16(10)   R17       7
    C16(10)   R18       2
    C16(10)   R19       10
    C17(12)   OBJ       9
    C17(12)   R0        9
    C17(12)   R4        12
    C17(12)   R5        19
    C17(12)   R7        6
    C17(12)   R9        8
    C17(12)   R10       3
    C17(12)   R12       3
    C17(12)   R13       18
    C17(12)   R14       18
    C17(12)   R16       -1
    C17(12)   R18       7
    C17(12)   R19       10
    C18(13)   OBJ       6
    C18(13)   R0        -8
    C18(13)   R1        18
    C18(13)   R2        2
    C18(13)   R3        3
    C18(13)   R4        10
    C18(13)   R6        19
    C18(13)   R7        10
    C18(13)   R9        5
    C18(13)   R10       5
    C18(13)   R11       8
    C18(13)   R15       5
    C18(13)   R16       5
    C18(13)   R18       1
    C19(10)   OBJ       -10
    C19(10)   R0        -8
    C19(10)   R1        15
    C19(10)   R2        19
    C19(10)   R4        6
    C19(10)   R5        19
    C19(10)   R10       10
    C19(10)   R12       3
    C19(10)   R13       9
    C19(10)   R17       6
    C19(10)   R19       5
    C20(1)    R1        1
    C21(1)    R2        1
    C22(1)    R3        1
    C23(1)    R4        1
    C24(1)    R5        1
    C25(1)    R6        1
    C26(1)    R7        1
    C27(1)    R8        1
    C28(1)    R9        1
    C29(1)    R10       1
    C30(1)    R11       1
    C31(1)    R12       1
    C32(1)    R13       1
    C33(1)    R14       1
    C34(1)    R15       1
    C35(1)    R16       1
    C36(1)    R17       1
    C37(1)    R18       1
    C38(1)    R19       1
    C39(1)    R20       1
RHS
    RHS1      R0        4.4482456140350862e+01
    RHS1      R1        89
    RHS1      R2        70
    RHS1      R3        79
    RHS1      R4        90
    RHS1      R5        58
    RHS1      R6        67
    RHS1      R7        88
    RHS1      R8        84
    RHS1      R9        84
    RHS1      R10       60
    RHS1      R11       95
    RHS1      R12       80
    RHS1      R13       94
    RHS1      R14       62
    RHS1      R15       64
    RHS1      R16       89
    RHS1      R17       53
    RHS1      R18       76
    RHS1      R19       64
    RHS1      R20       4
BOUNDS
 UP BND1      I0(10)    2
 UP BND1      I1(12)    2
 UP BND1      I2(10)    2
 UP BND1      I3(7)     2
 UP BND1      I4(9)     2
 UP BND1      I5(12)    2
 UP BND1      I6(11)    2
 UP BND1      I7(12)    2
 UP BND1      I8(9)     2
 UP BND1      I9(10)    2
 UP BND1      I10(9)    2
 UP BND1      I11(10)   2
ENDATA
